p edge 44 204
v 1 800
v 2 1200
v 3 450
v 4 80
v 5 80
v 6 1200
v 7 900
v 8 55
v 9 400
v 10 180
v 11 90
v 12 900
v 13 500
v 14 200
v 15 760
v 16 330
v 17 760
v 18 650
v 19 560
v 20 270
v 21 100
v 22 300
v 23 30
v 24 540
v 25 150
v 26 560
v 27 80
v 28 60
v 29 440
v 30 30
v 31 50
v 32 60
v 33 120
v 34 150
v 35 30
v 36 70
v 37 60
v 38 110
v 39 230
v 40 110
v 41 180
v 42 340
v 43 20
v 44 800
e 1 2
e 1 3
e 1 4
e 1 5
e 1 6
e 1 11
e 1 17
e 1 22
e 1 27
e 1 40
e 2 3
e 2 4
e 2 5
e 2 12
e 2 18
e 2 34
e 2 41
e 3 4
e 3 5
e 3 8
e 3 19
e 3 24
e 3 29
e 3 36
e 4 5
e 4 15
e 4 31
e 4 37
e 4 43
e 5 16
e 5 20
e 5 25
e 5 32
e 5 38
e 5 44
e 6 7
e 6 8
e 6 9
e 6 10
e 6 11
e 6 17
e 6 22
e 6 27
e 6 40
e 7 8
e 7 9
e 7 10
e 7 13
e 7 23
e 7 28
e 7 35
e 8 9
e 8 10
e 8 19
e 8 24
e 8 29
e 8 36
e 9 10
e 9 14
e 9 30
e 9 42
e 10 21
e 10 26
e 10 33
e 10 39
e 11 12
e 11 13
e 11 14
e 11 15
e 11 16
e 11 17
e 11 22
e 11 27
e 11 40
e 12 13
e 12 14
e 12 15
e 12 16
e 12 18
e 12 34
e 12 41
e 13 14
e 13 15
e 13 16
e 13 23
e 13 28
e 13 35
e 14 15
e 14 16
e 14 30
e 14 42
e 15 16
e 15 31
e 15 37
e 15 43
e 16 20
e 16 25
e 16 32
e 16 38
e 16 44
e 17 18
e 17 19
e 17 20
e 17 21
e 17 22
e 17 27
e 17 40
e 18 19
e 18 20
e 18 21
e 18 34
e 18 41
e 19 20
e 19 21
e 19 24
e 19 29
e 19 36
e 20 21
e 20 25
e 20 32
e 20 38
e 20 44
e 21 26
e 21 33
e 21 39
e 22 23
e 22 24
e 22 25
e 22 26
e 22 27
e 22 40
e 23 24
e 23 25
e 23 26
e 23 28
e 23 35
e 24 25
e 24 26
e 24 29
e 24 36
e 25 26
e 25 32
e 25 38
e 25 44
e 26 33
e 26 39
e 27 28
e 27 29
e 27 30
e 27 31
e 27 32
e 27 33
e 27 40
e 28 29
e 28 30
e 28 31
e 28 32
e 28 33
e 28 35
e 29 30
e 29 31
e 29 32
e 29 33
e 29 36
e 30 31
e 30 32
e 30 33
e 30 42
e 31 32
e 31 33
e 31 37
e 31 43
e 32 33
e 32 38
e 32 44
e 33 39
e 34 35
e 34 36
e 34 37
e 34 38
e 34 39
e 34 41
e 35 36
e 35 37
e 35 38
e 35 39
e 36 37
e 36 38
e 36 39
e 37 38
e 37 39
e 37 43
e 38 39
e 38 44
e 40 41
e 40 42
e 40 43
e 40 44
e 41 42
e 41 43
e 41 44
e 42 43
e 42 44
e 43 44
